TCS_Benchmarks/redos_fix/regexlib1_output_distinct_1173_1172_87_0.txt
[\\a\?#%&\$\'mA-Za-z\+\,p\-\.\/;0-9_]*
([\\a\?#%&\$\'mA-Za-z\+\,p\-\.\/;0-9_]*)([\\\d\%\&\'\+\,\-\.\/\w\:\;\|\=a\~\?mopqtu;]*)
[\\\d\%\&\'\+\,\-\.\/\w\:\;\|\=a\~\?mopqtu;]*